db/inputs/19883119551788125446747263082273427900.smt2
(set-logic QF_FP)
(declare-const x0 (_ FloatingPoint 8 24))
(declare-const x1 (_ FloatingPoint 8 24))
(declare-const x2 (_ FloatingPoint 8 24))
(declare-const x3 (_ FloatingPoint 8 24))
(declare-const x4 (_ FloatingPoint 8 24))
(assert (fp.leq (fp.div RNE x1 x3) (fp.add RNE x2 x1)))
(assert (fp.leq (fp.div RNE x2 x0) (fp.neg x0)))
(assert (fp.geq (fp.neg x2) (fp.neg x3)))
(assert (fp.geq (fp.add RNE x2 x1) (fp.div RNE x4 x3)))
(assert (fp.gt (fp.add RNE x2 x0) (fp.neg x3)))
(assert (fp.eq (fp.div RNE x3 x2) (fp.div RNE x1 x2)))
(assert (fp.lt (fp.add RNE x4 x0) (fp.neg x1)))
(assert (fp.eq (fp.div RNE x3 x1) (fp.div RNE x2 x1)))
(assert (fp.eq (fp.neg x3) (fp.sub RNE x3 x4)))
(assert (fp.geq (fp.div RNE x4 x0) (fp.mul RNE x4 x3)))
(assert (fp.eq (fp.mul RNE x0 x2) (fp.mul RNE x0 x0)))
(check-sat)
