db/data/19883119551788125446747263082273427900.z3.out
unsat
-------------------
65.305279584
